750
50 50
1 40 897
2 40 624
3 40 574
4 40 550
5 40 945
6 40 734
7 40 109
8 40 263
9 40 509
10 40 927
11 40 16
12 40 14
13 40 4
14 40 397
15 40 481
16 40 939
17 40 353
18 40 315
19 39 179
20 39 890
21 39 827
22 39 637
23 39 334
24 39 392
25 39 211
26 39 704
27 39 372
28 39 646
29 39 681
30 39 774
31 39 720
32 39 66
33 39 246
34 39 323
35 39 69
36 39 913
37 39 396
38 39 454
39 39 119
40 39 827
41 39 926
42 38 501
43 38 438
44 38 513
45 38 998
46 38 550
47 38 90
48 38 823
49 38 118
50 38 46
51 38 243
52 38 666
53 38 151
54 38 744
55 38 35
56 38 383
57 38 825
58 38 593
59 38 122
60 38 612
61 38 182
62 38 1
63 38 342
64 38 331
65 38 10
66 38 688
67 38 914
68 37 872
69 37 688
70 37 716
71 37 8
72 37 159
73 37 394
74 37 426
75 37 196
76 37 821
77 37 558
78 37 639
79 37 899
80 37 517
81 37 571
82 37 235
83 37 222
84 37 555
85 37 787
86 37 614
87 37 332
88 36 950
89 36 971
90 36 894
91 36 82
92 36 586
93 36 91
94 36 707
95 36 181
96 36 473
97 36 934
98 36 44
99 36 626
100 36 132
101 36 194
102 36 122
103 36 37
104 36 116
105 35 994
106 35 715
107 35 269
108 35 327
109 35 79
110 35 709
111 35 973
112 35 878
113 35 200
114 35 191
115 35 407
116 35 55
117 35 298
118 35 631
119 35 375
120 35 515
121 35 878
122 35 142
123 35 299
124 34 83
125 34 263
126 34 3
127 34 64
128 34 240
129 34 787
130 34 785
131 34 135
132 34 986
133 34 594
134 34 341
135 34 897
136 34 632
137 34 943
138 34 286
139 34 319
140 34 926
141 34 306
142 34 765
143 34 297
144 34 271
145 34 662
146 34 701
147 34 438
148 33 391
149 33 461
150 33 267
151 33 993
152 33 10
153 33 38
154 33 563
155 33 849
156 33 149
157 33 171
158 33 450
159 33 902
160 33 153
161 33 984
162 33 110
163 32 959
164 32 754
165 32 254
166 32 184
167 32 685
168 32 421
169 32 455
170 32 100
171 32 866
172 32 834
173 32 824
174 32 339
175 32 528
176 32 768
177 32 942
178 32 378
179 32 817
180 32 151
181 32 906
182 31 767
183 31 899
184 31 947
185 31 655
186 31 409
187 31 72
188 31 686
189 31 510
190 31 193
191 31 546
192 31 750
193 31 394
194 31 451
195 31 410
196 31 641
197 31 926
198 31 238
199 30 807
200 30 869
201 30 547
202 30 728
203 30 500
204 30 961
205 30 387
206 30 158
207 30 351
208 30 413
209 30 891
210 30 909
211 30 815
212 30 378
213 30 465
214 30 48
215 30 134
216 30 326
217 30 291
218 30 546
219 30 175
220 30 748
221 30 106
222 30 803
223 29 978
224 29 947
225 29 659
226 29 305
227 29 64
228 29 555
229 29 450
230 29 977
231 29 471
232 29 108
233 29 322
234 29 411
235 29 189
236 29 856
237 29 192
238 29 853
239 28 578
240 28 453
241 28 967
242 28 611
243 28 154
244 28 146
245 28 761
246 28 365
247 28 327
248 28 647
249 28 866
250 28 155
251 28 563
252 28 53
253 28 196
254 28 616
255 28 653
256 28 210
257 28 572
258 28 121
259 28 891
260 28 568
261 28 652
262 28 793
263 28 138
264 28 639
265 27 722
266 27 845
267 27 275
268 27 475
269 27 752
270 27 613
271 27 863
272 27 413
273 27 253
274 27 908
275 27 517
276 27 750
277 27 451
278 27 73
279 27 692
280 27 830
281 27 230
282 27 472
283 27 756
284 27 342
285 27 430
286 26 61
287 26 265
288 26 363
289 26 821
290 26 327
291 26 119
292 26 975
293 26 372
294 26 569
295 26 749
296 26 172
297 26 935
298 26 194
299 26 848
300 26 842
301 26 787
302 26 486
303 26 769
304 26 71
305 26 204
306 26 477
307 26 641
308 26 626
309 26 912
310 26 991
311 26 822
312 26 456
313 26 678
314 26 516
315 26 678
316 25 597
317 25 699
318 25 650
319 25 28
320 25 970
321 25 561
322 25 75
323 25 896
324 25 480
325 25 368
326 25 367
327 25 823
328 25 167
329 25 804
330 25 807
331 25 933
332 25 979
333 25 923
334 25 243
335 25 580
336 25 32
337 24 979
338 24 289
339 24 610
340 24 612
341 24 647
342 24 718
343 24 631
344 24 156
345 24 428
346 24 923
347 24 469
348 24 572
349 24 915
350 24 569
351 24 875
352 24 737
353 23 646
354 23 772
355 23 54
356 23 248
357 23 28
358 23 936
359 23 890
360 23 782
361 23 609
362 23 17
363 23 451
364 23 843
365 23 506
366 23 114
367 23 49
368 23 295
369 23 259
370 23 436
371 23 595
372 23 942
373 23 429
374 23 718
375 23 678
376 23 422
377 23 302
378 23 94
379 23 355
380 23 300
381 23 5
382 23 620
383 23 739
384 22 158
385 22 845
386 22 217
387 22 500
388 22 798
389 22 245
390 22 20
391 22 476
392 22 65
393 22 944
394 22 627
395 22 787
396 22 328
397 22 860
398 22 540
399 22 198
400 22 286
401 22 553
402 22 300
403 22 527
404 22 596
405 22 68
406 21 168
407 21 159
408 21 759
409 21 2
410 21 201
411 21 894
412 21 475
413 21 272
414 21 827
415 21 911
416 21 349
417 21 485
418 21 348
419 21 788
420 21 379
421 21 815
422 21 230
423 21 13
424 21 549
425 21 77
426 20 573
427 20 194
428 20 991
429 20 56
430 20 238
431 20 854
432 20 639
433 20 560
434 20 68
435 20 634
436 20 967
437 20 625
438 20 991
439 20 46
440 20 197
441 20 279
442 20 664
443 20 54
444 20 448
445 20 363
446 20 344
447 20 963
448 19 141
449 19 444
450 19 994
451 19 507
452 19 734
453 19 220
454 19 557
455 19 2
456 19 766
457 19 986
458 19 239
459 19 243
460 19 130
461 19 611
462 19 177
463 19 221
464 19 270
465 19 939
466 19 566
467 18 127
468 18 757
469 18 502
470 18 52
471 18 220
472 18 408
473 18 37
474 18 961
475 18 59
476 18 639
477 18 69
478 18 350
479 18 583
480 18 463
481 17 13
482 17 400
483 17 883
484 17 329
485 17 633
486 17 803
487 17 834
488 17 818
489 17 733
490 17 387
491 17 62
492 17 945
493 17 808
494 17 622
495 17 560
496 17 290
497 17 995
498 17 911
499 17 113
500 17 297
501 17 182
502 17 826
503 16 547
504 16 747
505 16 716
506 16 70
507 16 642
508 16 654
509 16 916
510 16 342
511 16 459
512 16 620
513 16 204
514 16 492
515 16 731
516 16 691
517 16 81
518 16 388
519 16 246
520 16 174
521 16 335
522 16 971
523 16 858
524 16 845
525 15 3
526 15 672
527 15 459
528 15 589
529 15 331
530 15 981
531 15 986
532 15 749
533 15 72
534 15 27
535 15 138
536 15 835
537 15 675
538 15 699
539 15 400
540 15 720
541 15 331
542 14 309
543 14 469
544 14 913
545 14 54
546 14 391
547 14 405
548 14 735
549 14 868
550 14 720
551 14 911
552 14 97
553 14 559
554 14 309
555 14 530
556 14 376
557 14 696
558 14 347
559 14 615
560 14 852
561 14 551
562 14 256
563 14 584
564 13 782
565 13 443
566 13 659
567 13 363
568 13 445
569 13 550
570 13 892
571 13 803
572 13 186
573 13 854
574 13 585
575 13 54
576 13 325
577 13 718
578 13 936
579 13 790
580 13 68
581 13 174
582 13 367
583 13 803
584 13 820
585 12 376
586 12 867
587 12 172
588 12 758
589 12 360
590 12 276
591 12 963
592 12 528
593 12 608
594 12 542
595 12 259
596 12 785
597 12 582
598 12 312
599 12 528
600 12 895
601 12 226
602 12 3
603 11 834
604 11 302
605 11 333
606 11 610
607 11 684
608 11 684
609 11 931
610 11 732
611 11 196
612 11 708
613 10 772
614 10 854
615 10 563
616 10 503
617 10 162
618 10 398
619 10 957
620 10 487
621 10 593
622 10 357
623 10 415
624 10 501
625 10 735
626 10 458
627 10 266
628 10 728
629 10 412
630 10 468
631 10 862
632 10 863
633 10 701
634 10 536
635 10 795
636 10 239
637 10 627
638 9 112
639 9 714
640 9 452
641 9 588
642 9 584
643 9 556
644 9 126
645 9 793
646 9 398
647 9 777
648 9 950
649 9 673
650 9 224
651 9 387
652 9 783
653 9 262
654 9 114
655 9 887
656 9 368
657 9 968
658 9 784
659 9 213
660 9 166
661 9 379
662 9 743
663 8 847
664 8 424
665 8 960
666 8 669
667 8 703
668 8 246
669 8 722
670 8 946
671 8 657
672 8 236
673 8 806
674 8 5
675 8 577
676 8 713
677 8 936
678 8 552
679 8 420
680 8 94
681 8 319
682 8 361
683 8 189
684 8 394
685 7 714
686 7 826
687 7 982
688 7 689
689 7 226
690 7 737
691 7 233
692 7 453
693 7 87
694 7 137
695 7 167
696 7 915
697 7 466
698 7 364
699 7 925
700 7 431
701 7 1000
702 7 85
703 7 782
704 7 93
705 7 997
706 7 36
707 7 78
708 7 738
709 7 598
710 6 977
711 6 413
712 6 521
713 6 919
714 6 708
715 6 276
716 6 410
717 6 836
718 6 645
719 6 751
720 6 853
721 6 238
722 6 875
723 6 39
724 6 239
725 6 40
726 6 877
727 6 129
728 6 146
729 5 741
730 5 558
731 5 263
732 5 671
733 5 667
734 5 544
735 5 24
736 5 611
737 5 580
738 5 431
739 5 729
740 5 137
741 5 620
742 5 569
743 5 667
744 5 459
745 5 573
746 5 351
747 5 711
748 5 192
749 5 969
750 5 779
